certificates/rado_a15_c6_N169.cnf
c Rad2 upper bound instance: x1 + 15*x2 - x3 = 6, interval [1,169]
p cnf 169 1870
1 10 0
-1 -10 0
1 2 25 0
-1 -2 -25 0
1 3 40 0
-1 -3 -40 0
1 4 55 0
-1 -4 -55 0
1 5 70 0
-1 -5 -70 0
1 6 85 0
-1 -6 -85 0
1 7 100 0
-1 -7 -100 0
1 8 115 0
-1 -8 -115 0
1 9 130 0
-1 -9 -130 0
1 10 145 0
-1 -10 -145 0
1 11 160 0
-1 -11 -160 0
1 2 11 0
-1 -2 -11 0
2 26 0
-2 -26 0
2 3 41 0
-2 -3 -41 0
2 4 56 0
-2 -4 -56 0
2 5 71 0
-2 -5 -71 0
2 6 86 0
-2 -6 -86 0
2 7 101 0
-2 -7 -101 0
2 8 116 0
-2 -8 -116 0
2 9 131 0
-2 -9 -131 0
2 10 146 0
-2 -10 -146 0
2 11 161 0
-2 -11 -161 0
1 3 12 0
-1 -3 -12 0
2 3 27 0
-2 -3 -27 0
3 42 0
-3 -42 0
3 4 57 0
-3 -4 -57 0
3 5 72 0
-3 -5 -72 0
3 6 87 0
-3 -6 -87 0
3 7 102 0
-3 -7 -102 0
3 8 117 0
-3 -8 -117 0
3 9 132 0
-3 -9 -132 0
3 10 147 0
-3 -10 -147 0
3 11 162 0
-3 -11 -162 0
1 4 13 0
-1 -4 -13 0
2 4 28 0
-2 -4 -28 0
3 4 43 0
-3 -4 -43 0
4 58 0
-4 -58 0
4 5 73 0
-4 -5 -73 0
4 6 88 0
-4 -6 -88 0
4 7 103 0
-4 -7 -103 0
4 8 118 0
-4 -8 -118 0
4 9 133 0
-4 -9 -133 0
4 10 148 0
-4 -10 -148 0
4 11 163 0
-4 -11 -163 0
1 5 14 0
-1 -5 -14 0
2 5 29 0
-2 -5 -29 0
3 5 44 0
-3 -5 -44 0
4 5 59 0
-4 -5 -59 0
5 74 0
-5 -74 0
5 6 89 0
-5 -6 -89 0
5 7 104 0
-5 -7 -104 0
5 8 119 0
-5 -8 -119 0
5 9 134 0
-5 -9 -134 0
5 10 149 0
-5 -10 -149 0
5 11 164 0
-5 -11 -164 0
1 6 15 0
-1 -6 -15 0
2 6 30 0
-2 -6 -30 0
3 6 45 0
-3 -6 -45 0
4 6 60 0
-4 -6 -60 0
5 6 75 0
-5 -6 -75 0
6 90 0
-6 -90 0
6 7 105 0
-6 -7 -105 0
6 8 120 0
-6 -8 -120 0
6 9 135 0
-6 -9 -135 0
6 10 150 0
-6 -10 -150 0
6 11 165 0
-6 -11 -165 0
1 7 16 0
-1 -7 -16 0
2 7 31 0
-2 -7 -31 0
3 7 46 0
-3 -7 -46 0
4 7 61 0
-4 -7 -61 0
5 7 76 0
-5 -7 -76 0
6 7 91 0
-6 -7 -91 0
7 106 0
-7 -106 0
7 8 121 0
-7 -8 -121 0
7 9 136 0
-7 -9 -136 0
7 10 151 0
-7 -10 -151 0
7 11 166 0
-7 -11 -166 0
1 8 17 0
-1 -8 -17 0
2 8 32 0
-2 -8 -32 0
3 8 47 0
-3 -8 -47 0
4 8 62 0
-4 -8 -62 0
5 8 77 0
-5 -8 -77 0
6 8 92 0
-6 -8 -92 0
7 8 107 0
-7 -8 -107 0
8 122 0
-8 -122 0
8 9 137 0
-8 -9 -137 0
8 10 152 0
-8 -10 -152 0
8 11 167 0
-8 -11 -167 0
1 9 18 0
-1 -9 -18 0
2 9 33 0
-2 -9 -33 0
3 9 48 0
-3 -9 -48 0
4 9 63 0
-4 -9 -63 0
5 9 78 0
-5 -9 -78 0
6 9 93 0
-6 -9 -93 0
7 9 108 0
-7 -9 -108 0
8 9 123 0
-8 -9 -123 0
9 138 0
-9 -138 0
9 10 153 0
-9 -10 -153 0
9 11 168 0
-9 -11 -168 0
1 10 19 0
-1 -10 -19 0
2 10 34 0
-2 -10 -34 0
3 10 49 0
-3 -10 -49 0
4 10 64 0
-4 -10 -64 0
5 10 79 0
-5 -10 -79 0
6 10 94 0
-6 -10 -94 0
7 10 109 0
-7 -10 -109 0
8 10 124 0
-8 -10 -124 0
9 10 139 0
-9 -10 -139 0
10 154 0
-10 -154 0
10 11 169 0
-10 -11 -169 0
1 11 20 0
-1 -11 -20 0
2 11 35 0
-2 -11 -35 0
3 11 50 0
-3 -11 -50 0
4 11 65 0
-4 -11 -65 0
5 11 80 0
-5 -11 -80 0
6 11 95 0
-6 -11 -95 0
7 11 110 0
-7 -11 -110 0
8 11 125 0
-8 -11 -125 0
9 11 140 0
-9 -11 -140 0
10 11 155 0
-10 -11 -155 0
1 12 21 0
-1 -12 -21 0
2 12 36 0
-2 -12 -36 0
3 12 51 0
-3 -12 -51 0
4 12 66 0
-4 -12 -66 0
5 12 81 0
-5 -12 -81 0
6 12 96 0
-6 -12 -96 0
7 12 111 0
-7 -12 -111 0
8 12 126 0
-8 -12 -126 0
9 12 141 0
-9 -12 -141 0
10 12 156 0
-10 -12 -156 0
1 13 22 0
-1 -13 -22 0
2 13 37 0
-2 -13 -37 0
3 13 52 0
-3 -13 -52 0
4 13 67 0
-4 -13 -67 0
5 13 82 0
-5 -13 -82 0
6 13 97 0
-6 -13 -97 0
7 13 112 0
-7 -13 -112 0
8 13 127 0
-8 -13 -127 0
9 13 142 0
-9 -13 -142 0
10 13 157 0
-10 -13 -157 0
1 14 23 0
-1 -14 -23 0
2 14 38 0
-2 -14 -38 0
3 14 53 0
-3 -14 -53 0
4 14 68 0
-4 -14 -68 0
5 14 83 0
-5 -14 -83 0
6 14 98 0
-6 -14 -98 0
7 14 113 0
-7 -14 -113 0
8 14 128 0
-8 -14 -128 0
9 14 143 0
-9 -14 -143 0
10 14 158 0
-10 -14 -158 0
1 15 24 0
-1 -15 -24 0
2 15 39 0
-2 -15 -39 0
3 15 54 0
-3 -15 -54 0
4 15 69 0
-4 -15 -69 0
5 15 84 0
-5 -15 -84 0
6 15 99 0
-6 -15 -99 0
7 15 114 0
-7 -15 -114 0
8 15 129 0
-8 -15 -129 0
9 15 144 0
-9 -15 -144 0
10 15 159 0
-10 -15 -159 0
1 16 25 0
-1 -16 -25 0
2 16 40 0
-2 -16 -40 0
3 16 55 0
-3 -16 -55 0
4 16 70 0
-4 -16 -70 0
5 16 85 0
-5 -16 -85 0
6 16 100 0
-6 -16 -100 0
7 16 115 0
-7 -16 -115 0
8 16 130 0
-8 -16 -130 0
9 16 145 0
-9 -16 -145 0
10 16 160 0
-10 -16 -160 0
1 17 26 0
-1 -17 -26 0
2 17 41 0
-2 -17 -41 0
3 17 56 0
-3 -17 -56 0
4 17 71 0
-4 -17 -71 0
5 17 86 0
-5 -17 -86 0
6 17 101 0
-6 -17 -101 0
7 17 116 0
-7 -17 -116 0
8 17 131 0
-8 -17 -131 0
9 17 146 0
-9 -17 -146 0
10 17 161 0
-10 -17 -161 0
1 18 27 0
-1 -18 -27 0
2 18 42 0
-2 -18 -42 0
3 18 57 0
-3 -18 -57 0
4 18 72 0
-4 -18 -72 0
5 18 87 0
-5 -18 -87 0
6 18 102 0
-6 -18 -102 0
7 18 117 0
-7 -18 -117 0
8 18 132 0
-8 -18 -132 0
9 18 147 0
-9 -18 -147 0
10 18 162 0
-10 -18 -162 0
1 19 28 0
-1 -19 -28 0
2 19 43 0
-2 -19 -43 0
3 19 58 0
-3 -19 -58 0
4 19 73 0
-4 -19 -73 0
5 19 88 0
-5 -19 -88 0
6 19 103 0
-6 -19 -103 0
7 19 118 0
-7 -19 -118 0
8 19 133 0
-8 -19 -133 0
9 19 148 0
-9 -19 -148 0
10 19 163 0
-10 -19 -163 0
1 20 29 0
-1 -20 -29 0
2 20 44 0
-2 -20 -44 0
3 20 59 0
-3 -20 -59 0
4 20 74 0
-4 -20 -74 0
5 20 89 0
-5 -20 -89 0
6 20 104 0
-6 -20 -104 0
7 20 119 0
-7 -20 -119 0
8 20 134 0
-8 -20 -134 0
9 20 149 0
-9 -20 -149 0
10 20 164 0
-10 -20 -164 0
1 21 30 0
-1 -21 -30 0
2 21 45 0
-2 -21 -45 0
3 21 60 0
-3 -21 -60 0
4 21 75 0
-4 -21 -75 0
5 21 90 0
-5 -21 -90 0
6 21 105 0
-6 -21 -105 0
7 21 120 0
-7 -21 -120 0
8 21 135 0
-8 -21 -135 0
9 21 150 0
-9 -21 -150 0
10 21 165 0
-10 -21 -165 0
1 22 31 0
-1 -22 -31 0
2 22 46 0
-2 -22 -46 0
3 22 61 0
-3 -22 -61 0
4 22 76 0
-4 -22 -76 0
5 22 91 0
-5 -22 -91 0
6 22 106 0
-6 -22 -106 0
7 22 121 0
-7 -22 -121 0
8 22 136 0
-8 -22 -136 0
9 22 151 0
-9 -22 -151 0
10 22 166 0
-10 -22 -166 0
1 23 32 0
-1 -23 -32 0
2 23 47 0
-2 -23 -47 0
3 23 62 0
-3 -23 -62 0
4 23 77 0
-4 -23 -77 0
5 23 92 0
-5 -23 -92 0
6 23 107 0
-6 -23 -107 0
7 23 122 0
-7 -23 -122 0
8 23 137 0
-8 -23 -137 0
9 23 152 0
-9 -23 -152 0
10 23 167 0
-10 -23 -167 0
1 24 33 0
-1 -24 -33 0
2 24 48 0
-2 -24 -48 0
3 24 63 0
-3 -24 -63 0
4 24 78 0
-4 -24 -78 0
5 24 93 0
-5 -24 -93 0
6 24 108 0
-6 -24 -108 0
7 24 123 0
-7 -24 -123 0
8 24 138 0
-8 -24 -138 0
9 24 153 0
-9 -24 -153 0
10 24 168 0
-10 -24 -168 0
1 25 34 0
-1 -25 -34 0
2 25 49 0
-2 -25 -49 0
3 25 64 0
-3 -25 -64 0
4 25 79 0
-4 -25 -79 0
5 25 94 0
-5 -25 -94 0
6 25 109 0
-6 -25 -109 0
7 25 124 0
-7 -25 -124 0
8 25 139 0
-8 -25 -139 0
9 25 154 0
-9 -25 -154 0
10 25 169 0
-10 -25 -169 0
1 26 35 0
-1 -26 -35 0
2 26 50 0
-2 -26 -50 0
3 26 65 0
-3 -26 -65 0
4 26 80 0
-4 -26 -80 0
5 26 95 0
-5 -26 -95 0
6 26 110 0
-6 -26 -110 0
7 26 125 0
-7 -26 -125 0
8 26 140 0
-8 -26 -140 0
9 26 155 0
-9 -26 -155 0
1 27 36 0
-1 -27 -36 0
2 27 51 0
-2 -27 -51 0
3 27 66 0
-3 -27 -66 0
4 27 81 0
-4 -27 -81 0
5 27 96 0
-5 -27 -96 0
6 27 111 0
-6 -27 -111 0
7 27 126 0
-7 -27 -126 0
8 27 141 0
-8 -27 -141 0
9 27 156 0
-9 -27 -156 0
1 28 37 0
-1 -28 -37 0
2 28 52 0
-2 -28 -52 0
3 28 67 0
-3 -28 -67 0
4 28 82 0
-4 -28 -82 0
5 28 97 0
-5 -28 -97 0
6 28 112 0
-6 -28 -112 0
7 28 127 0
-7 -28 -127 0
8 28 142 0
-8 -28 -142 0
9 28 157 0
-9 -28 -157 0
1 29 38 0
-1 -29 -38 0
2 29 53 0
-2 -29 -53 0
3 29 68 0
-3 -29 -68 0
4 29 83 0
-4 -29 -83 0
5 29 98 0
-5 -29 -98 0
6 29 113 0
-6 -29 -113 0
7 29 128 0
-7 -29 -128 0
8 29 143 0
-8 -29 -143 0
9 29 158 0
-9 -29 -158 0
1 30 39 0
-1 -30 -39 0
2 30 54 0
-2 -30 -54 0
3 30 69 0
-3 -30 -69 0
4 30 84 0
-4 -30 -84 0
5 30 99 0
-5 -30 -99 0
6 30 114 0
-6 -30 -114 0
7 30 129 0
-7 -30 -129 0
8 30 144 0
-8 -30 -144 0
9 30 159 0
-9 -30 -159 0
1 31 40 0
-1 -31 -40 0
2 31 55 0
-2 -31 -55 0
3 31 70 0
-3 -31 -70 0
4 31 85 0
-4 -31 -85 0
5 31 100 0
-5 -31 -100 0
6 31 115 0
-6 -31 -115 0
7 31 130 0
-7 -31 -130 0
8 31 145 0
-8 -31 -145 0
9 31 160 0
-9 -31 -160 0
1 32 41 0
-1 -32 -41 0
2 32 56 0
-2 -32 -56 0
3 32 71 0
-3 -32 -71 0
4 32 86 0
-4 -32 -86 0
5 32 101 0
-5 -32 -101 0
6 32 116 0
-6 -32 -116 0
7 32 131 0
-7 -32 -131 0
8 32 146 0
-8 -32 -146 0
9 32 161 0
-9 -32 -161 0
1 33 42 0
-1 -33 -42 0
2 33 57 0
-2 -33 -57 0
3 33 72 0
-3 -33 -72 0
4 33 87 0
-4 -33 -87 0
5 33 102 0
-5 -33 -102 0
6 33 117 0
-6 -33 -117 0
7 33 132 0
-7 -33 -132 0
8 33 147 0
-8 -33 -147 0
9 33 162 0
-9 -33 -162 0
1 34 43 0
-1 -34 -43 0
2 34 58 0
-2 -34 -58 0
3 34 73 0
-3 -34 -73 0
4 34 88 0
-4 -34 -88 0
5 34 103 0
-5 -34 -103 0
6 34 118 0
-6 -34 -118 0
7 34 133 0
-7 -34 -133 0
8 34 148 0
-8 -34 -148 0
9 34 163 0
-9 -34 -163 0
1 35 44 0
-1 -35 -44 0
2 35 59 0
-2 -35 -59 0
3 35 74 0
-3 -35 -74 0
4 35 89 0
-4 -35 -89 0
5 35 104 0
-5 -35 -104 0
6 35 119 0
-6 -35 -119 0
7 35 134 0
-7 -35 -134 0
8 35 149 0
-8 -35 -149 0
9 35 164 0
-9 -35 -164 0
1 36 45 0
-1 -36 -45 0
2 36 60 0
-2 -36 -60 0
3 36 75 0
-3 -36 -75 0
4 36 90 0
-4 -36 -90 0
5 36 105 0
-5 -36 -105 0
6 36 120 0
-6 -36 -120 0
7 36 135 0
-7 -36 -135 0
8 36 150 0
-8 -36 -150 0
9 36 165 0
-9 -36 -165 0
1 37 46 0
-1 -37 -46 0
2 37 61 0
-2 -37 -61 0
3 37 76 0
-3 -37 -76 0
4 37 91 0
-4 -37 -91 0
5 37 106 0
-5 -37 -106 0
6 37 121 0
-6 -37 -121 0
7 37 136 0
-7 -37 -136 0
8 37 151 0
-8 -37 -151 0
9 37 166 0
-9 -37 -166 0
1 38 47 0
-1 -38 -47 0
2 38 62 0
-2 -38 -62 0
3 38 77 0
-3 -38 -77 0
4 38 92 0
-4 -38 -92 0
5 38 107 0
-5 -38 -107 0
6 38 122 0
-6 -38 -122 0
7 38 137 0
-7 -38 -137 0
8 38 152 0
-8 -38 -152 0
9 38 167 0
-9 -38 -167 0
1 39 48 0
-1 -39 -48 0
2 39 63 0
-2 -39 -63 0
3 39 78 0
-3 -39 -78 0
4 39 93 0
-4 -39 -93 0
5 39 108 0
-5 -39 -108 0
6 39 123 0
-6 -39 -123 0
7 39 138 0
-7 -39 -138 0
8 39 153 0
-8 -39 -153 0
9 39 168 0
-9 -39 -168 0
1 40 49 0
-1 -40 -49 0
2 40 64 0
-2 -40 -64 0
3 40 79 0
-3 -40 -79 0
4 40 94 0
-4 -40 -94 0
5 40 109 0
-5 -40 -109 0
6 40 124 0
-6 -40 -124 0
7 40 139 0
-7 -40 -139 0
8 40 154 0
-8 -40 -154 0
9 40 169 0
-9 -40 -169 0
1 41 50 0
-1 -41 -50 0
2 41 65 0
-2 -41 -65 0
3 41 80 0
-3 -41 -80 0
4 41 95 0
-4 -41 -95 0
5 41 110 0
-5 -41 -110 0
6 41 125 0
-6 -41 -125 0
7 41 140 0
-7 -41 -140 0
8 41 155 0
-8 -41 -155 0
1 42 51 0
-1 -42 -51 0
2 42 66 0
-2 -42 -66 0
3 42 81 0
-3 -42 -81 0
4 42 96 0
-4 -42 -96 0
5 42 111 0
-5 -42 -111 0
6 42 126 0
-6 -42 -126 0
7 42 141 0
-7 -42 -141 0
8 42 156 0
-8 -42 -156 0
1 43 52 0
-1 -43 -52 0
2 43 67 0
-2 -43 -67 0
3 43 82 0
-3 -43 -82 0
4 43 97 0
-4 -43 -97 0
5 43 112 0
-5 -43 -112 0
6 43 127 0
-6 -43 -127 0
7 43 142 0
-7 -43 -142 0
8 43 157 0
-8 -43 -157 0
1 44 53 0
-1 -44 -53 0
2 44 68 0
-2 -44 -68 0
3 44 83 0
-3 -44 -83 0
4 44 98 0
-4 -44 -98 0
5 44 113 0
-5 -44 -113 0
6 44 128 0
-6 -44 -128 0
7 44 143 0
-7 -44 -143 0
8 44 158 0
-8 -44 -158 0
1 45 54 0
-1 -45 -54 0
2 45 69 0
-2 -45 -69 0
3 45 84 0
-3 -45 -84 0
4 45 99 0
-4 -45 -99 0
5 45 114 0
-5 -45 -114 0
6 45 129 0
-6 -45 -129 0
7 45 144 0
-7 -45 -144 0
8 45 159 0
-8 -45 -159 0
1 46 55 0
-1 -46 -55 0
2 46 70 0
-2 -46 -70 0
3 46 85 0
-3 -46 -85 0
4 46 100 0
-4 -46 -100 0
5 46 115 0
-5 -46 -115 0
6 46 130 0
-6 -46 -130 0
7 46 145 0
-7 -46 -145 0
8 46 160 0
-8 -46 -160 0
1 47 56 0
-1 -47 -56 0
2 47 71 0
-2 -47 -71 0
3 47 86 0
-3 -47 -86 0
4 47 101 0
-4 -47 -101 0
5 47 116 0
-5 -47 -116 0
6 47 131 0
-6 -47 -131 0
7 47 146 0
-7 -47 -146 0
8 47 161 0
-8 -47 -161 0
1 48 57 0
-1 -48 -57 0
2 48 72 0
-2 -48 -72 0
3 48 87 0
-3 -48 -87 0
4 48 102 0
-4 -48 -102 0
5 48 117 0
-5 -48 -117 0
6 48 132 0
-6 -48 -132 0
7 48 147 0
-7 -48 -147 0
8 48 162 0
-8 -48 -162 0
1 49 58 0
-1 -49 -58 0
2 49 73 0
-2 -49 -73 0
3 49 88 0
-3 -49 -88 0
4 49 103 0
-4 -49 -103 0
5 49 118 0
-5 -49 -118 0
6 49 133 0
-6 -49 -133 0
7 49 148 0
-7 -49 -148 0
8 49 163 0
-8 -49 -163 0
1 50 59 0
-1 -50 -59 0
2 50 74 0
-2 -50 -74 0
3 50 89 0
-3 -50 -89 0
4 50 104 0
-4 -50 -104 0
5 50 119 0
-5 -50 -119 0
6 50 134 0
-6 -50 -134 0
7 50 149 0
-7 -50 -149 0
8 50 164 0
-8 -50 -164 0
1 51 60 0
-1 -51 -60 0
2 51 75 0
-2 -51 -75 0
3 51 90 0
-3 -51 -90 0
4 51 105 0
-4 -51 -105 0
5 51 120 0
-5 -51 -120 0
6 51 135 0
-6 -51 -135 0
7 51 150 0
-7 -51 -150 0
8 51 165 0
-8 -51 -165 0
1 52 61 0
-1 -52 -61 0
2 52 76 0
-2 -52 -76 0
3 52 91 0
-3 -52 -91 0
4 52 106 0
-4 -52 -106 0
5 52 121 0
-5 -52 -121 0
6 52 136 0
-6 -52 -136 0
7 52 151 0
-7 -52 -151 0
8 52 166 0
-8 -52 -166 0
1 53 62 0
-1 -53 -62 0
2 53 77 0
-2 -53 -77 0
3 53 92 0
-3 -53 -92 0
4 53 107 0
-4 -53 -107 0
5 53 122 0
-5 -53 -122 0
6 53 137 0
-6 -53 -137 0
7 53 152 0
-7 -53 -152 0
8 53 167 0
-8 -53 -167 0
1 54 63 0
-1 -54 -63 0
2 54 78 0
-2 -54 -78 0
3 54 93 0
-3 -54 -93 0
4 54 108 0
-4 -54 -108 0
5 54 123 0
-5 -54 -123 0
6 54 138 0
-6 -54 -138 0
7 54 153 0
-7 -54 -153 0
8 54 168 0
-8 -54 -168 0
1 55 64 0
-1 -55 -64 0
2 55 79 0
-2 -55 -79 0
3 55 94 0
-3 -55 -94 0
4 55 109 0
-4 -55 -109 0
5 55 124 0
-5 -55 -124 0
6 55 139 0
-6 -55 -139 0
7 55 154 0
-7 -55 -154 0
8 55 169 0
-8 -55 -169 0
1 56 65 0
-1 -56 -65 0
2 56 80 0
-2 -56 -80 0
3 56 95 0
-3 -56 -95 0
4 56 110 0
-4 -56 -110 0
5 56 125 0
-5 -56 -125 0
6 56 140 0
-6 -56 -140 0
7 56 155 0
-7 -56 -155 0
1 57 66 0
-1 -57 -66 0
2 57 81 0
-2 -57 -81 0
3 57 96 0
-3 -57 -96 0
4 57 111 0
-4 -57 -111 0
5 57 126 0
-5 -57 -126 0
6 57 141 0
-6 -57 -141 0
7 57 156 0
-7 -57 -156 0
1 58 67 0
-1 -58 -67 0
2 58 82 0
-2 -58 -82 0
3 58 97 0
-3 -58 -97 0
4 58 112 0
-4 -58 -112 0
5 58 127 0
-5 -58 -127 0
6 58 142 0
-6 -58 -142 0
7 58 157 0
-7 -58 -157 0
1 59 68 0
-1 -59 -68 0
2 59 83 0
-2 -59 -83 0
3 59 98 0
-3 -59 -98 0
4 59 113 0
-4 -59 -113 0
5 59 128 0
-5 -59 -128 0
6 59 143 0
-6 -59 -143 0
7 59 158 0
-7 -59 -158 0
1 60 69 0
-1 -60 -69 0
2 60 84 0
-2 -60 -84 0
3 60 99 0
-3 -60 -99 0
4 60 114 0
-4 -60 -114 0
5 60 129 0
-5 -60 -129 0
6 60 144 0
-6 -60 -144 0
7 60 159 0
-7 -60 -159 0
1 61 70 0
-1 -61 -70 0
2 61 85 0
-2 -61 -85 0
3 61 100 0
-3 -61 -100 0
4 61 115 0
-4 -61 -115 0
5 61 130 0
-5 -61 -130 0
6 61 145 0
-6 -61 -145 0
7 61 160 0
-7 -61 -160 0
1 62 71 0
-1 -62 -71 0
2 62 86 0
-2 -62 -86 0
3 62 101 0
-3 -62 -101 0
4 62 116 0
-4 -62 -116 0
5 62 131 0
-5 -62 -131 0
6 62 146 0
-6 -62 -146 0
7 62 161 0
-7 -62 -161 0
1 63 72 0
-1 -63 -72 0
2 63 87 0
-2 -63 -87 0
3 63 102 0
-3 -63 -102 0
4 63 117 0
-4 -63 -117 0
5 63 132 0
-5 -63 -132 0
6 63 147 0
-6 -63 -147 0
7 63 162 0
-7 -63 -162 0
1 64 73 0
-1 -64 -73 0
2 64 88 0
-2 -64 -88 0
3 64 103 0
-3 -64 -103 0
4 64 118 0
-4 -64 -118 0
5 64 133 0
-5 -64 -133 0
6 64 148 0
-6 -64 -148 0
7 64 163 0
-7 -64 -163 0
1 65 74 0
-1 -65 -74 0
2 65 89 0
-2 -65 -89 0
3 65 104 0
-3 -65 -104 0
4 65 119 0
-4 -65 -119 0
5 65 134 0
-5 -65 -134 0
6 65 149 0
-6 -65 -149 0
7 65 164 0
-7 -65 -164 0
1 66 75 0
-1 -66 -75 0
2 66 90 0
-2 -66 -90 0
3 66 105 0
-3 -66 -105 0
4 66 120 0
-4 -66 -120 0
5 66 135 0
-5 -66 -135 0
6 66 150 0
-6 -66 -150 0
7 66 165 0
-7 -66 -165 0
1 67 76 0
-1 -67 -76 0
2 67 91 0
-2 -67 -91 0
3 67 106 0
-3 -67 -106 0
4 67 121 0
-4 -67 -121 0
5 67 136 0
-5 -67 -136 0
6 67 151 0
-6 -67 -151 0
7 67 166 0
-7 -67 -166 0
1 68 77 0
-1 -68 -77 0
2 68 92 0
-2 -68 -92 0
3 68 107 0
-3 -68 -107 0
4 68 122 0
-4 -68 -122 0
5 68 137 0
-5 -68 -137 0
6 68 152 0
-6 -68 -152 0
7 68 167 0
-7 -68 -167 0
1 69 78 0
-1 -69 -78 0
2 69 93 0
-2 -69 -93 0
3 69 108 0
-3 -69 -108 0
4 69 123 0
-4 -69 -123 0
5 69 138 0
-5 -69 -138 0
6 69 153 0
-6 -69 -153 0
7 69 168 0
-7 -69 -168 0
1 70 79 0
-1 -70 -79 0
2 70 94 0
-2 -70 -94 0
3 70 109 0
-3 -70 -109 0
4 70 124 0
-4 -70 -124 0
5 70 139 0
-5 -70 -139 0
6 70 154 0
-6 -70 -154 0
7 70 169 0
-7 -70 -169 0
1 71 80 0
-1 -71 -80 0
2 71 95 0
-2 -71 -95 0
3 71 110 0
-3 -71 -110 0
4 71 125 0
-4 -71 -125 0
5 71 140 0
-5 -71 -140 0
6 71 155 0
-6 -71 -155 0
1 72 81 0
-1 -72 -81 0
2 72 96 0
-2 -72 -96 0
3 72 111 0
-3 -72 -111 0
4 72 126 0
-4 -72 -126 0
5 72 141 0
-5 -72 -141 0
6 72 156 0
-6 -72 -156 0
1 73 82 0
-1 -73 -82 0
2 73 97 0
-2 -73 -97 0
3 73 112 0
-3 -73 -112 0
4 73 127 0
-4 -73 -127 0
5 73 142 0
-5 -73 -142 0
6 73 157 0
-6 -73 -157 0
1 74 83 0
-1 -74 -83 0
2 74 98 0
-2 -74 -98 0
3 74 113 0
-3 -74 -113 0
4 74 128 0
-4 -74 -128 0
5 74 143 0
-5 -74 -143 0
6 74 158 0
-6 -74 -158 0
1 75 84 0
-1 -75 -84 0
2 75 99 0
-2 -75 -99 0
3 75 114 0
-3 -75 -114 0
4 75 129 0
-4 -75 -129 0
5 75 144 0
-5 -75 -144 0
6 75 159 0
-6 -75 -159 0
1 76 85 0
-1 -76 -85 0
2 76 100 0
-2 -76 -100 0
3 76 115 0
-3 -76 -115 0
4 76 130 0
-4 -76 -130 0
5 76 145 0
-5 -76 -145 0
6 76 160 0
-6 -76 -160 0
1 77 86 0
-1 -77 -86 0
2 77 101 0
-2 -77 -101 0
3 77 116 0
-3 -77 -116 0
4 77 131 0
-4 -77 -131 0
5 77 146 0
-5 -77 -146 0
6 77 161 0
-6 -77 -161 0
1 78 87 0
-1 -78 -87 0
2 78 102 0
-2 -78 -102 0
3 78 117 0
-3 -78 -117 0
4 78 132 0
-4 -78 -132 0
5 78 147 0
-5 -78 -147 0
6 78 162 0
-6 -78 -162 0
1 79 88 0
-1 -79 -88 0
2 79 103 0
-2 -79 -103 0
3 79 118 0
-3 -79 -118 0
4 79 133 0
-4 -79 -133 0
5 79 148 0
-5 -79 -148 0
6 79 163 0
-6 -79 -163 0
1 80 89 0
-1 -80 -89 0
2 80 104 0
-2 -80 -104 0
3 80 119 0
-3 -80 -119 0
4 80 134 0
-4 -80 -134 0
5 80 149 0
-5 -80 -149 0
6 80 164 0
-6 -80 -164 0
1 81 90 0
-1 -81 -90 0
2 81 105 0
-2 -81 -105 0
3 81 120 0
-3 -81 -120 0
4 81 135 0
-4 -81 -135 0
5 81 150 0
-5 -81 -150 0
6 81 165 0
-6 -81 -165 0
1 82 91 0
-1 -82 -91 0
2 82 106 0
-2 -82 -106 0
3 82 121 0
-3 -82 -121 0
4 82 136 0
-4 -82 -136 0
5 82 151 0
-5 -82 -151 0
6 82 166 0
-6 -82 -166 0
1 83 92 0
-1 -83 -92 0
2 83 107 0
-2 -83 -107 0
3 83 122 0
-3 -83 -122 0
4 83 137 0
-4 -83 -137 0
5 83 152 0
-5 -83 -152 0
6 83 167 0
-6 -83 -167 0
1 84 93 0
-1 -84 -93 0
2 84 108 0
-2 -84 -108 0
3 84 123 0
-3 -84 -123 0
4 84 138 0
-4 -84 -138 0
5 84 153 0
-5 -84 -153 0
6 84 168 0
-6 -84 -168 0
1 85 94 0
-1 -85 -94 0
2 85 109 0
-2 -85 -109 0
3 85 124 0
-3 -85 -124 0
4 85 139 0
-4 -85 -139 0
5 85 154 0
-5 -85 -154 0
6 85 169 0
-6 -85 -169 0
1 86 95 0
-1 -86 -95 0
2 86 110 0
-2 -86 -110 0
3 86 125 0
-3 -86 -125 0
4 86 140 0
-4 -86 -140 0
5 86 155 0
-5 -86 -155 0
1 87 96 0
-1 -87 -96 0
2 87 111 0
-2 -87 -111 0
3 87 126 0
-3 -87 -126 0
4 87 141 0
-4 -87 -141 0
5 87 156 0
-5 -87 -156 0
1 88 97 0
-1 -88 -97 0
2 88 112 0
-2 -88 -112 0
3 88 127 0
-3 -88 -127 0
4 88 142 0
-4 -88 -142 0
5 88 157 0
-5 -88 -157 0
1 89 98 0
-1 -89 -98 0
2 89 113 0
-2 -89 -113 0
3 89 128 0
-3 -89 -128 0
4 89 143 0
-4 -89 -143 0
5 89 158 0
-5 -89 -158 0
1 90 99 0
-1 -90 -99 0
2 90 114 0
-2 -90 -114 0
3 90 129 0
-3 -90 -129 0
4 90 144 0
-4 -90 -144 0
5 90 159 0
-5 -90 -159 0
1 91 100 0
-1 -91 -100 0
2 91 115 0
-2 -91 -115 0
3 91 130 0
-3 -91 -130 0
4 91 145 0
-4 -91 -145 0
5 91 160 0
-5 -91 -160 0
1 92 101 0
-1 -92 -101 0
2 92 116 0
-2 -92 -116 0
3 92 131 0
-3 -92 -131 0
4 92 146 0
-4 -92 -146 0
5 92 161 0
-5 -92 -161 0
1 93 102 0
-1 -93 -102 0
2 93 117 0
-2 -93 -117 0
3 93 132 0
-3 -93 -132 0
4 93 147 0
-4 -93 -147 0
5 93 162 0
-5 -93 -162 0
1 94 103 0
-1 -94 -103 0
2 94 118 0
-2 -94 -118 0
3 94 133 0
-3 -94 -133 0
4 94 148 0
-4 -94 -148 0
5 94 163 0
-5 -94 -163 0
1 95 104 0
-1 -95 -104 0
2 95 119 0
-2 -95 -119 0
3 95 134 0
-3 -95 -134 0
4 95 149 0
-4 -95 -149 0
5 95 164 0
-5 -95 -164 0
1 96 105 0
-1 -96 -105 0
2 96 120 0
-2 -96 -120 0
3 96 135 0
-3 -96 -135 0
4 96 150 0
-4 -96 -150 0
5 96 165 0
-5 -96 -165 0
1 97 106 0
-1 -97 -106 0
2 97 121 0
-2 -97 -121 0
3 97 136 0
-3 -97 -136 0
4 97 151 0
-4 -97 -151 0
5 97 166 0
-5 -97 -166 0
1 98 107 0
-1 -98 -107 0
2 98 122 0
-2 -98 -122 0
3 98 137 0
-3 -98 -137 0
4 98 152 0
-4 -98 -152 0
5 98 167 0
-5 -98 -167 0
1 99 108 0
-1 -99 -108 0
2 99 123 0
-2 -99 -123 0
3 99 138 0
-3 -99 -138 0
4 99 153 0
-4 -99 -153 0
5 99 168 0
-5 -99 -168 0
1 100 109 0
-1 -100 -109 0
2 100 124 0
-2 -100 -124 0
3 100 139 0
-3 -100 -139 0
4 100 154 0
-4 -100 -154 0
5 100 169 0
-5 -100 -169 0
1 101 110 0
-1 -101 -110 0
2 101 125 0
-2 -101 -125 0
3 101 140 0
-3 -101 -140 0
4 101 155 0
-4 -101 -155 0
1 102 111 0
-1 -102 -111 0
2 102 126 0
-2 -102 -126 0
3 102 141 0
-3 -102 -141 0
4 102 156 0
-4 -102 -156 0
1 103 112 0
-1 -103 -112 0
2 103 127 0
-2 -103 -127 0
3 103 142 0
-3 -103 -142 0
4 103 157 0
-4 -103 -157 0
1 104 113 0
-1 -104 -113 0
2 104 128 0
-2 -104 -128 0
3 104 143 0
-3 -104 -143 0
4 104 158 0
-4 -104 -158 0
1 105 114 0
-1 -105 -114 0
2 105 129 0
-2 -105 -129 0
3 105 144 0
-3 -105 -144 0
4 105 159 0
-4 -105 -159 0
1 106 115 0
-1 -106 -115 0
2 106 130 0
-2 -106 -130 0
3 106 145 0
-3 -106 -145 0
4 106 160 0
-4 -106 -160 0
1 107 116 0
-1 -107 -116 0
2 107 131 0
-2 -107 -131 0
3 107 146 0
-3 -107 -146 0
4 107 161 0
-4 -107 -161 0
1 108 117 0
-1 -108 -117 0
2 108 132 0
-2 -108 -132 0
3 108 147 0
-3 -108 -147 0
4 108 162 0
-4 -108 -162 0
1 109 118 0
-1 -109 -118 0
2 109 133 0
-2 -109 -133 0
3 109 148 0
-3 -109 -148 0
4 109 163 0
-4 -109 -163 0
1 110 119 0
-1 -110 -119 0
2 110 134 0
-2 -110 -134 0
3 110 149 0
-3 -110 -149 0
4 110 164 0
-4 -110 -164 0
1 111 120 0
-1 -111 -120 0
2 111 135 0
-2 -111 -135 0
3 111 150 0
-3 -111 -150 0
4 111 165 0
-4 -111 -165 0
1 112 121 0
-1 -112 -121 0
2 112 136 0
-2 -112 -136 0
3 112 151 0
-3 -112 -151 0
4 112 166 0
-4 -112 -166 0
1 113 122 0
-1 -113 -122 0
2 113 137 0
-2 -113 -137 0
3 113 152 0
-3 -113 -152 0
4 113 167 0
-4 -113 -167 0
1 114 123 0
-1 -114 -123 0
2 114 138 0
-2 -114 -138 0
3 114 153 0
-3 -114 -153 0
4 114 168 0
-4 -114 -168 0
1 115 124 0
-1 -115 -124 0
2 115 139 0
-2 -115 -139 0
3 115 154 0
-3 -115 -154 0
4 115 169 0
-4 -115 -169 0
1 116 125 0
-1 -116 -125 0
2 116 140 0
-2 -116 -140 0
3 116 155 0
-3 -116 -155 0
1 117 126 0
-1 -117 -126 0
2 117 141 0
-2 -117 -141 0
3 117 156 0
-3 -117 -156 0
1 118 127 0
-1 -118 -127 0
2 118 142 0
-2 -118 -142 0
3 118 157 0
-3 -118 -157 0
1 119 128 0
-1 -119 -128 0
2 119 143 0
-2 -119 -143 0
3 119 158 0
-3 -119 -158 0
1 120 129 0
-1 -120 -129 0
2 120 144 0
-2 -120 -144 0
3 120 159 0
-3 -120 -159 0
1 121 130 0
-1 -121 -130 0
2 121 145 0
-2 -121 -145 0
3 121 160 0
-3 -121 -160 0
1 122 131 0
-1 -122 -131 0
2 122 146 0
-2 -122 -146 0
3 122 161 0
-3 -122 -161 0
1 123 132 0
-1 -123 -132 0
2 123 147 0
-2 -123 -147 0
3 123 162 0
-3 -123 -162 0
1 124 133 0
-1 -124 -133 0
2 124 148 0
-2 -124 -148 0
3 124 163 0
-3 -124 -163 0
1 125 134 0
-1 -125 -134 0
2 125 149 0
-2 -125 -149 0
3 125 164 0
-3 -125 -164 0
1 126 135 0
-1 -126 -135 0
2 126 150 0
-2 -126 -150 0
3 126 165 0
-3 -126 -165 0
1 127 136 0
-1 -127 -136 0
2 127 151 0
-2 -127 -151 0
3 127 166 0
-3 -127 -166 0
1 128 137 0
-1 -128 -137 0
2 128 152 0
-2 -128 -152 0
3 128 167 0
-3 -128 -167 0
1 129 138 0
-1 -129 -138 0
2 129 153 0
-2 -129 -153 0
3 129 168 0
-3 -129 -168 0
1 130 139 0
-1 -130 -139 0
2 130 154 0
-2 -130 -154 0
3 130 169 0
-3 -130 -169 0
1 131 140 0
-1 -131 -140 0
2 131 155 0
-2 -131 -155 0
1 132 141 0
-1 -132 -141 0
2 132 156 0
-2 -132 -156 0
1 133 142 0
-1 -133 -142 0
2 133 157 0
-2 -133 -157 0
1 134 143 0
-1 -134 -143 0
2 134 158 0
-2 -134 -158 0
1 135 144 0
-1 -135 -144 0
2 135 159 0
-2 -135 -159 0
1 136 145 0
-1 -136 -145 0
2 136 160 0
-2 -136 -160 0
1 137 146 0
-1 -137 -146 0
2 137 161 0
-2 -137 -161 0
1 138 147 0
-1 -138 -147 0
2 138 162 0
-2 -138 -162 0
1 139 148 0
-1 -139 -148 0
2 139 163 0
-2 -139 -163 0
1 140 149 0
-1 -140 -149 0
2 140 164 0
-2 -140 -164 0
1 141 150 0
-1 -141 -150 0
2 141 165 0
-2 -141 -165 0
1 142 151 0
-1 -142 -151 0
2 142 166 0
-2 -142 -166 0
1 143 152 0
-1 -143 -152 0
2 143 167 0
-2 -143 -167 0
1 144 153 0
-1 -144 -153 0
2 144 168 0
-2 -144 -168 0
1 145 154 0
-1 -145 -154 0
2 145 169 0
-2 -145 -169 0
1 146 155 0
-1 -146 -155 0
1 147 156 0
-1 -147 -156 0
1 148 157 0
-1 -148 -157 0
1 149 158 0
-1 -149 -158 0
1 150 159 0
-1 -150 -159 0
1 151 160 0
-1 -151 -160 0
1 152 161 0
-1 -152 -161 0
1 153 162 0
-1 -153 -162 0
1 154 163 0
-1 -154 -163 0
1 155 164 0
-1 -155 -164 0
1 156 165 0
-1 -156 -165 0
1 157 166 0
-1 -157 -166 0
1 158 167 0
-1 -158 -167 0
1 159 168 0
-1 -159 -168 0
1 160 169 0
-1 -160 -169 0
