certificates/rado_a15_c6_N169.drat
1 -164 -169 0
-164 -166 -169 0
-11 164 -169 0
-5 -167 -168 0
164 5 -169 0
5 -169 0
d 164 5 -169 0
-164 -169 0
d -164 -166 -169 0
d 1 -164 -169 0
10 -8 -169 0
-8 -169 0
d 10 -8 -169 0
-169 0
-10 0
1 0
154 0
11 0
25 0
-160 0
-163 0
-145 0
-20 0
-2 0
-34 0
-9 0
-16 0
0
